datasets/2-dimensional/CL_06_25_09.vbp
2
150 150 
25
32 53 30
74 45 72
67 65 4
30 23 88
87 97 54
69 91 64
74 77 90
66 73 26
36 42 94
82 56 28
89 53 72
47 77 49
55 40 54
77 38 19
24 38 28
73 28 61
29 28 84
44 82 23
55 21 67
27 23 53
30 52 54
82 99 16
68 22 9
60 26 54
74 21 77
