datasets/2-dimensional/CL_06_25_09.txt
150 150 
0 30 32 53 
1 72 74 45 
2 4 67 65 
3 88 30 23 
4 54 87 97 
5 64 69 91 
6 90 74 77 
7 26 66 73 
8 94 36 42 
9 28 82 56 
10 72 89 53 
11 49 47 77 
12 54 55 40 
13 19 77 38 
14 28 24 38 
15 61 73 28 
16 84 29 28 
17 23 44 82 
18 67 55 21 
19 53 27 23 
20 54 30 52 
21 16 82 99 
22 9 68 22 
23 54 60 26 
24 77 74 21 
